20
2
20291
206 90
false
0.25
18 18 25 22 5 49 39 13 6 36 16 25 26 37 34 7 20 43 45 9
23 33 48 39 12 33 34 20 3 19 3 49 16 43 10 7 10 10 21 19
50 17 42 61 76 5 48 52 43 30 92 45 65 54 36 47 70 41 21 13
0 0 79 0 0 0 0 0 0 0 0 37 0 46 0 61 0 0 0 0
0 79 34 38 0 0 0 40 93 96 0 21 0 0 0 0 88 50 0
0 0 0 0 0 0 0 0 19 0 0 0 0 0 0 0 0 0
0 0 0 0 0 0 0 0 48 0 0 0 20 0 0 29 0
0 0 14 0 0 0 0 0 0 0 42 0 0 34 0 0
0 0 0 0 0 0 0 60 0 0 0 0 0 0 51
0 87 0 50 51 0 0 24 0 0 38 0 0 0
0 0 0 76 0 37 67 98 0 79 31 0 0
0 0 90 32 0 0 0 29 0 0 0 28
0 0 0 5 0 83 52 0 0 0 92
0 0 22 0 87 95 0 0 0 0
0 0 0 0 0 0 57 0 0
0 0 0 0 15 71 0 0
0 0 0 0 0 89 84
0 25 0 10 0 49
0 79 0 0 0
0 63 0 0
0 0 0
0 0
0 0 0 0 0 0 0 0 62 0 63 54 44 0 0 98 0 0 50
0 0 0 0 0 0 0 0 0 0 0 0 0 0 0 0 0 0
0 0 0 0 0 0 0 0 0 0 0 0 9 0 53 0 0
0 41 39 0 0 0 0 0 0 0 0 0 0 88 0 0
0 0 48 23 0 32 0 74 46 0 64 46 0 0 0
0 0 0 0 0 0 3 0 0 54 0 0 0 0
0 0 32 0 0 0 0 0 82 0 0 0 0
0 0 0 0 0 0 0 0 0 0 0 0
0 0 0 39 41 0 0 99 0 0 0
0 0 0 0 0 0 0 0 0 0
0 0 93 0 52 0 0 0 67
0 11 0 0 0 0 0 0
0 0 0 0 0 0 35
0 0 0 0 0 0
0 0 55 0 0
0 0 0 0
0 0 56
0 50
0
0 0 30 9 0 0 76 0 0 0 0 0 67 0 11 0 0 0
0 0 0 0 64 0 54 35 9 64 86 0 88 0 0 0 0
0 0 0 96 0 19 0 88 0 0 0 0 38 0 0 88
0 75 0 0 0 0 0 0 90 0 0 0 44 0 0
0 0 0 65 0 0 0 0 0 0 0 0 72 0
0 10 0 0 0 0 0 77 0 0 69 0 0
0 29 17 0 0 0 4 9 0 0 0 33
0 0 0 0 0 0 83 58 0 0 0
0 0 0 29 0 0 0 94 0 0
0 0 34 0 0 0 5 0 0
0 94 0 0 0 0 0 0
0 0 78 0 31 0 0
0 0 0 0 0 0
0 0 0 0 0
0 0 0 0
0 4 0
0 93
0
0 5 44 0 11 45 0 0 0 68 0 0 0 0 0 5 0
0 0 0 0 0 0 0 0 0 0 0 0 0 1 0 0
0 0 49 0 0 0 0 0 97 33 0 13 45 0 0
0 0 46 0 0 0 0 0 0 0 0 0 0 52
0 20 12 0 43 0 100 0 0 0 0 0 46
0 0 94 5 0 0 0 0 7 0 0 0
0 0 0 0 37 4 0 0 19 0 0
0 0 0 0 0 0 0 0 0 0
0 0 77 0 0 0 0 0 0
0 0 0 0 73 10 93 59
0 0 26 16 0 0 36
0 0 0 0 36 0
0 0 0 0 85
0 41 50 0
0 0 66
0 0
0
0 0 26 60 0 0 0 55 0 0 18 17 20 0 17 0
0 0 0 0 0 0 0 0 0 0 0 0 0 0 0
0 0 0 0 0 0 0 0 0 0 0 0 0 0
0 0 0 0 32 0 40 0 0 0 0 0 0
0 0 40 0 0 86 87 0 0 0 0 0
0 0 0 26 0 0 0 0 0 56 5
0 87 93 0 0 0 0 55 0 0
0 0 0 44 0 0 0 0 0
0 0 0 0 40 0 85 0
0 0 0 0 3 0 0
0 0 77 56 66 0
0 3 0 0 0
0 0 0 89
0 50 0
0 0
0
0 0 0 0 0 0 0 92 0 0 0 0 0 0 0
0 79 0 0 0 0 0 0 9 0 0 0 95 62
0 0 0 72 0 62 0 0 0 0 0 0 35
0 0 0 0 0 10 0 79 0 0 0 86
0 0 55 0 0 0 3 0 0 0 0
0 0 0 0 0 34 0 0 0 0
0 13 0 0 6 0 71 16 0
0 0 0 8 0 54 0 0
0 0 0 0 0 0 0
0 0 0 0 68 0
0 0 0 0 0
0 0 0 0
0 0 57
0 75
0
0 0 7 0 0 0 0 22 0 0 0 0 0 0
0 62 0 0 86 72 0 0 0 33 12 75 68
0 0 0 0 0 60 0 0 30 0 0 0
0 0 0 0 0 0 6 0 0 0 48
0 0 0 0 0 0 64 0 4 0
0 0 0 0 0 0 49 0 0
0 0 0 0 0 0 0 54
0 44 0 0 0 0 0
0 0 0 0 0 30
0 0 1 0 0
0 0 0 0
0 0 0
0 0
0
0 0 0 0 28 0 0 0 0 10 0 17 0
0 0 0 0 0 31 0 42 0 0 0 0
0 0 0 0 0 0 0 0 79 89 0
0 23 0 27 0 0 16 0 0 0
0 0 0 0 55 0 0 0 0
0 0 0 0 0 0 19 0
0 38 0 0 0 0 0
0 63 0 0 0 0
0 24 0 48 0
0 0 0 0
0 47 0
0 0
0
0 0 22 0 59 0 93 0 0 0 0 0
0 0 0 0 0 0 0 0 0 0 0
0 0 0 0 0 0 0 0 0 0
0 0 52 0 33 0 0 65 0
0 0 0 66 0 17 51 0
0 0 20 15 0 0 0
0 0 18 69 0 0
0 0 27 1 0
0 0 29 27
0 0 33
0 0
0
0 92 92 18 0 91 49 0 88 34 0
0 0 0 22 0 0 37 0 23 0
0 0 0 0 0 0 0 0 0
0 0 0 10 0 0 26 65
0 0 0 0 69 0 0
0 4 0 1 0 0
0 96 0 0 0
0 0 0 14
0 0 0
0 19
0
0 100 2 0 0 0 0 0 0 59
0 0 70 0 0 0 0 0 76
0 0 0 0 0 0 0 0
0 0 76 0 0 0 0
0 0 6 0 0 0
0 0 88 0 0
0 0 72 0
0 68 0
0 0
0
0 0 33 0 0 0 0 0 0
0 0 0 0 0 0 0 0
0 0 0 41 0 2 76
0 0 89 0 94 0
0 67 0 33 0
0 0 88 98
0 0 0
0 89
0
0 0 0 0 0 43 95 0
0 0 97 16 0 0 0
0 29 17 0 0 0
0 0 9 0 0
0 3 0 0
0 0 0
0 0
0
0 0 0 83 0 0 0
0 69 0 0 0 0
0 70 0 0 0
0 33 0 0
0 68 0
0 0
0
0 0 0 0 0 0
0 69 0 0 0
0 26 34 0
0 0 0
0 0
0
0 0 0 41 0
0 88 0 0
0 0 0
0 0
0
0 0 74 0
0 0 42
0 79
0
0 0 0
0 84
0
0 0
0
0
1976 3046 1981 2165 2091 1908 1674 2826 2324 2506 2511 2205 2331 2627 1960 2631 2594 2382 2588 2503
97.84541062801932 130.76262626262627 60.25541666666666 76.96095571095572 296.225 48.378478664192954 46.07918552036199 179.3423076923077 581.0 100.75292397660819 496.96875 66.6 117.67067307692308 66.04651162790698 126.82352941176471 375.85714285714283 194.54999999999998 146.79767441860466 90.37460317460318 204.9239766081871
